DIMENSION: 8
EDGE_WEIGHT_TYPE: EXPLICIT
EDGE_WEIGHT_FORMAT: FULL_MATRIX
EDGE_WEIGHT_SECTION:
32767 80 34 36 28 83 52 77 
80 32767 49 69 75 53 72 7 
34 49 32767 32767 39 57 86 67 
36 69 32767 32767 76 20 26 41 
28 75 39 76 32767 53 5 32767 
83 53 57 20 53 32767 13 61 
52 72 86 26 5 13 32767 32767 
77 7 67 41 32767 61 32767 32767 
EOF